(set-logic QF_S)
(declare-fun var0 () String)
(declare-fun var1 () String)
(declare-fun var2 () String)
(declare-fun var3 () String)
(declare-fun var4 () String)
(declare-fun var5 () String)
(declare-fun var6 () String)
(declare-fun var7 () String)
(declare-fun var8 () String)
(declare-fun var9 () String)
(declare-fun var10 () String)
(declare-fun var11 () String)
(declare-fun var12 () String)
(declare-fun var13 () String)
(declare-fun var14 () String)
(declare-fun var15 () String)
(declare-fun var16 () String)
(declare-fun var17 () String)
(declare-fun var18 () String)
(declare-fun var19 () String)
(declare-fun var20 () String)
(declare-fun var21 () String)
(declare-fun var22 () String)
(declare-fun var23 () String)
(declare-fun var24 () String)
(declare-fun var25 () String)
(declare-fun var26 () String)
(declare-fun var27 () String)
(declare-fun var28 () String)
(declare-fun var29 () String)
(declare-fun var30 () String)
(declare-fun var31 () String)
(declare-fun var32 () String)
(declare-fun var33 () String)
(declare-fun var34 () String)
(declare-fun var35 () String)
(declare-fun var36 () String)
(declare-fun var37 () String)
(declare-fun var38 () String)
(declare-fun var39 () String)
(declare-fun var40 () String)
(declare-fun var41 () String)
(declare-fun var42 () String)
(declare-fun var43 () String)
(declare-fun var44 () String)
(declare-fun var45 () String)
(declare-fun var46 () String)
(declare-fun var47 () String)
(declare-fun var48 () String)
(declare-fun var49 () String)
(declare-fun var50 () String)
(declare-fun var51 () String)
(declare-fun var52 () String)
(declare-fun var53 () String)
(declare-fun var54 () String)
(declare-fun var55 () String)
(declare-fun var56 () String)
(declare-fun var57 () String)
(declare-fun var58 () String)
(declare-fun var59 () String)
(declare-fun var60 () String)
(assert (= var0 (str.++ var1 var2)))
(assert (= var2 (str.++ var3 var4)))
(assert (= var4 (str.++ var5 var6)))
(assert (= var6 (str.++ var7 var8)))
(assert (= var8 (str.++ var9 var10)))
(assert (= var10 (str.++ var11 var12)))
(assert (= var12 (str.++ var13 var14)))
(assert (= var14 (str.++ var15 var16)))
(assert (= var16 (str.++ var17 var18)))
(assert (= var18 (str.++ var19 var20)))
(assert (= var20 (str.++ var21 var22)))
(assert (= var22 (str.++ var23 var24)))
(assert (= var24 (str.++ var25 var26)))
(assert (= var26 (str.++ var27 var28)))
(assert (= var28 (str.++ var29 var30)))
(assert (= var30 (str.++ var31 var32)))
(assert (= var32 (str.++ var33 var34)))
(assert (= var34 (str.++ var35 var36)))
(assert (= var36 (str.++ var37 var38)))
(assert (= var38 (str.++ var39 var40)))
(assert (= var40 (str.++ var41 var42)))
(assert (= var42 (str.++ var43 var44)))
(assert (= var44 (str.++ var45 var46)))
(assert (= var46 (str.++ var47 var48)))
(assert (= var48 (str.++ var49 var50)))
(assert (= var50 (str.++ var51 var52)))
(assert (= var52 (str.++ var53 var54)))
(assert (= var54 (str.++ var55 var56)))
(assert (= var56 (str.++ var57 var58)))
(assert (= var58 (str.++ var59 var60)))
(assert (= var0 "solution"))
(assert (= "4" (str.at var41 380)))
(assert (= "(" (str.at var8 204)))
(assert (= "y" (str.at var54 163)))
(assert (= "3" (str.at var47 682)))
(assert (= "C" (str.at var34 328)))
(assert (= "3" (str.at var14 572)))
(assert (= "t" (str.at var0 236)))
(assert (= "+" (str.at var5 877)))
(assert (= """" (str.at var31 723)))
(assert (= "?" (str.at var4 112)))
(assert (= "1" (str.at var52 101)))
(assert (= "Q" (str.at var7 908)))
(assert (= "!" (str.at var8 593)))
(assert (= "h" (str.at var41 348)))
(assert (= "t" (str.at var24 715)))
(assert (= "&" (str.at var42 244)))
(assert (= "/" (str.at var42 359)))
(assert (= "h" (str.at var32 802)))
(assert (= "^" (str.at var45 862)))
(assert (= "s" (str.at var33 989)))
(assert (= "K" (str.at var37 179)))
(assert (= "e" (str.at var17 40)))
(assert (= "Q" (str.at var52 259)))
(assert (= "|" (str.at var11 485)))
(assert (= "5" (str.at var51 81)))
(assert (= "X" (str.at var35 82)))
(assert (= "!" (str.at var49 338)))
(assert (= "D" (str.at var48 154)))
(assert (= "U" (str.at var49 702)))
(assert (= "V" (str.at var4 810)))
(assert (= "9" (str.at var32 697)))
(assert (= ">" (str.at var19 338)))
(assert (= "k" (str.at var19 330)))
(assert (= "=" (str.at var34 589)))
(assert (= """" (str.at var50 980)))
(assert (= "i" (str.at var47 117)))
(assert (= ":" (str.at var24 785)))
(assert (= "b" (str.at var46 633)))
(assert (= "/" (str.at var40 806)))
(assert (= ":" (str.at var1 341)))
(assert (= "W" (str.at var24 34)))
(assert (= "M" (str.at var12 582)))
(assert (= "<" (str.at var36 105)))
(assert (= "h" (str.at var41 526)))
(assert (= "_" (str.at var29 571)))
(assert (= "Q" (str.at var46 734)))
(assert (= "g" (str.at var53 294)))
(assert (= "n" (str.at var23 784)))
(assert (= "k" (str.at var23 763)))
(assert (= "G" (str.at var1 752)))
(assert (= "o" (str.at var29 399)))
(assert (= "\\" (str.at var36 782)))
(assert (= "Q" (str.at var55 455)))
(assert (= "5" (str.at var14 828)))
(assert (= "L" (str.at var30 854)))
(assert (= "l" (str.at var55 844)))
(assert (= "Y" (str.at var40 261)))
(assert (= "p" (str.at var33 451)))
(assert (= ")" (str.at var52 579)))
(assert (= "&" (str.at var51 785)))
(assert (= "N" (str.at var1 522)))
(assert (= ")" (str.at var56 393)))
(assert (= "Z" (str.at var30 131)))
(assert (= "d" (str.at var7 397)))
(assert (= "(" (str.at var35 868)))
(assert (= "r" (str.at var2 632)))
(assert (= "?" (str.at var54 595)))
(assert (= "?" (str.at var6 257)))
(assert (= "P" (str.at var40 430)))
(assert (= "B" (str.at var12 666)))
(assert (= "+" (str.at var50 694)))
(assert (= "%" (str.at var35 561)))
(assert (= "{" (str.at var58 244)))
(assert (= """" (str.at var49 39)))
(assert (= "Y" (str.at var34 296)))
(assert (= "[" (str.at var58 269)))
(assert (= "s" (str.at var39 767)))
(assert (= "$" (str.at var29 187)))
(assert (= "7" (str.at var14 711)))
(assert (= "R" (str.at var59 58)))
(assert (= "}" (str.at var59 875)))
(assert (= ":" (str.at var15 145)))
(assert (= "*" (str.at var12 21)))
(assert (= "%" (str.at var2 167)))
(assert (= "f" (str.at var14 703)))
(assert (= "y" (str.at var35 302)))
(assert (= "N" (str.at var1 678)))
(assert (= "8" (str.at var26 300)))
(assert (= "|" (str.at var0 910)))
(assert (= "g" (str.at var4 613)))
(assert (= "F" (str.at var11 319)))
(assert (= "V" (str.at var40 461)))
(assert (= "W" (str.at var23 794)))
(assert (= "3" (str.at var47 540)))
(assert (= "p" (str.at var43 531)))
(assert (= "T" (str.at var58 609)))
(assert (= "&" (str.at var21 560)))
(assert (= "n" (str.at var50 972)))
(assert (= "^" (str.at var5 629)))
(assert (= "#" (str.at var46 202)))
(assert (= "z" (str.at var4 195)))
(assert (= "2" (str.at var42 112)))
(assert (= "$" (str.at var56 628)))
(assert (= "L" (str.at var31 958)))
(assert (= "q" (str.at var3 33)))
(assert (= "B" (str.at var1 131)))
(assert (= "`" (str.at var11 196)))
(assert (= "N" (str.at var27 410)))
(assert (= "G" (str.at var7 779)))
(assert (= "1" (str.at var56 942)))
(assert (= "n" (str.at var29 142)))
(assert (= "b" (str.at var24 756)))
(assert (= "G" (str.at var52 977)))
(assert (= "h" (str.at var6 908)))
(assert (= "t" (str.at var33 809)))
(assert (= "c" (str.at var56 742)))
(assert (= "\\" (str.at var0 487)))
(assert (= "6" (str.at var7 419)))
(assert (= "N" (str.at var28 141)))
(assert (= "c" (str.at var20 748)))
(assert (= "J" (str.at var30 821)))
(assert (= "." (str.at var11 324)))
(assert (= "i" (str.at var23 444)))
(assert (= "d" (str.at var33 593)))
(assert (= "k" (str.at var32 163)))
(assert (= "v" (str.at var37 938)))
(assert (= "V" (str.at var48 700)))
(assert (= "F" (str.at var48 75)))
(assert (= "W" (str.at var56 220)))
(assert (= "f" (str.at var12 54)))
(assert (= "%" (str.at var41 534)))
(assert (= "@" (str.at var32 838)))
(assert (= "q" (str.at var12 779)))
(assert (= "p" (str.at var24 481)))
(assert (= "I" (str.at var36 502)))
(assert (= ";" (str.at var57 969)))
(assert (= "4" (str.at var16 874)))
(assert (= "O" (str.at var46 152)))
(assert (= "c" (str.at var38 3)))
(assert (= "%" (str.at var59 696)))
(assert (= ":" (str.at var46 226)))
(assert (= "b" (str.at var23 663)))
(assert (= "T" (str.at var0 386)))
(assert (= "~" (str.at var6 5)))
(assert (= "s" (str.at var6 276)))
(assert (= "T" (str.at var2 602)))
(assert (= "A" (str.at var44 205)))
(assert (= "W" (str.at var26 393)))
(assert (= "*" (str.at var21 199)))
(assert (= "W" (str.at var40 237)))
(assert (= ")" (str.at var47 637)))
(assert (= "}" (str.at var1 720)))
(assert (= "P" (str.at var47 42)))
(assert (= "m" (str.at var11 313)))
(assert (= "|" (str.at var54 954)))
(assert (= "J" (str.at var16 872)))
(assert (= "K" (str.at var28 703)))
(assert (= "l" (str.at var9 316)))
(assert (= "W" (str.at var2 981)))
(assert (= "s" (str.at var23 252)))
(assert (= "M" (str.at var22 985)))
(assert (= "(" (str.at var34 307)))
(assert (= "W" (str.at var50 10)))
(assert (= ";" (str.at var5 59)))
(assert (= "v" (str.at var47 203)))
(assert (= "$" (str.at var4 53)))
(assert (= "B" (str.at var35 703)))
(assert (= "U" (str.at var27 775)))
(assert (= "m" (str.at var16 318)))
(assert (= "M" (str.at var0 902)))
(assert (= "=" (str.at var34 258)))
(assert (= "\\" (str.at var53 372)))
(assert (= "T" (str.at var3 948)))
(assert (= "l" (str.at var10 506)))
(assert (= "=" (str.at var1 209)))
(assert (= "}" (str.at var34 704)))
(assert (= "]" (str.at var36 1)))
(assert (= "+" (str.at var21 270)))
(assert (= "l" (str.at var29 214)))
(assert (= "S" (str.at var19 636)))
(assert (= "(" (str.at var39 307)))
(assert (= "4" (str.at var28 30)))
(assert (= "*" (str.at var54 793)))
(assert (= "=" (str.at var40 995)))
(assert (= "]" (str.at var17 90)))
(assert (= "~" (str.at var16 160)))
(assert (= "N" (str.at var52 215)))
(assert (= "a" (str.at var29 587)))
(assert (= "8" (str.at var56 412)))
(assert (= "=" (str.at var49 121)))
(assert (= "E" (str.at var34 365)))
(assert (= "\\" (str.at var4 421)))
(assert (= "H" (str.at var53 653)))
(assert (= "!" (str.at var23 775)))
(assert (= "#" (str.at var27 79)))
(assert (= "q" (str.at var6 969)))
(assert (= "+" (str.at var15 861)))
(assert (= "n" (str.at var52 831)))
(assert (= "E" (str.at var0 69)))
(assert (= "." (str.at var42 449)))
(assert (= "<" (str.at var27 137)))
(assert (= "z" (str.at var45 972)))
(assert (= "l" (str.at var33 821)))
(assert (= "7" (str.at var43 807)))
(assert (= "q" (str.at var32 243)))
(assert (= "f" (str.at var24 70)))
(assert (= "{" (str.at var17 930)))
(assert (= "v" (str.at var31 758)))
(assert (= "#" (str.at var2 789)))
(assert (= "}" (str.at var19 764)))
(assert (= "7" (str.at var36 477)))
(assert (= "[" (str.at var36 962)))
(assert (= "6" (str.at var6 822)))
(assert (= "[" (str.at var51 900)))
(assert (= "C" (str.at var2 202)))
(assert (= "?" (str.at var23 742)))
(assert (= "'" (str.at var53 271)))
(assert (= "H" (str.at var8 461)))
(assert (= "}" (str.at var15 643)))
(assert (= "V" (str.at var45 597)))
(assert (= "q" (str.at var31 965)))
(assert (= "'" (str.at var10 431)))
(assert (= "5" (str.at var8 666)))
(assert (= "E" (str.at var30 627)))
(assert (= "x" (str.at var49 369)))
(assert (= "R" (str.at var27 233)))
(assert (= "X" (str.at var47 673)))
(assert (= ":" (str.at var0 255)))
(assert (= "f" (str.at var12 792)))
(assert (= "r" (str.at var31 444)))
(assert (= "7" (str.at var39 783)))
(assert (= "/" (str.at var2 992)))
(assert (= "Z" (str.at var4 754)))
(assert (= "V" (str.at var18 181)))
(assert (= "s" (str.at var30 87)))
(assert (= "^" (str.at var47 350)))
(assert (= "$" (str.at var38 103)))
(assert (= "R" (str.at var41 642)))
(assert (= "f" (str.at var35 89)))
(assert (= "q" (str.at var42 178)))
(assert (= "," (str.at var0 917)))
(assert (= "w" (str.at var31 114)))
(assert (= "{" (str.at var45 642)))
(assert (= "A" (str.at var23 561)))
(assert (= ">" (str.at var27 279)))
(assert (= "a" (str.at var1 105)))
(assert (= "&" (str.at var52 712)))
(assert (= "}" (str.at var2 20)))
(assert (= "!" (str.at var22 950)))
(assert (= "1" (str.at var26 995)))
(assert (= "D" (str.at var52 583)))
(assert (= "5" (str.at var36 459)))
(assert (= "h" (str.at var35 701)))
(assert (= "O" (str.at var33 934)))
(assert (= "v" (str.at var31 7)))
(assert (= "%" (str.at var47 504)))
(assert (= "p" (str.at var48 243)))
(assert (= "R" (str.at var21 695)))
(assert (= """" (str.at var21 47)))
(assert (= "[" (str.at var54 191)))
(assert (= "t" (str.at var30 793)))
(assert (= "3" (str.at var29 334)))
(assert (= "{" (str.at var49 850)))
(assert (= "9" (str.at var6 188)))
(assert (= "c" (str.at var30 22)))
(assert (= "o" (str.at var26 578)))
(assert (= "H" (str.at var54 385)))
(assert (= "l" (str.at var3 80)))
(assert (= "p" (str.at var15 563)))
(assert (= "0" (str.at var15 293)))
(assert (= "X" (str.at var15 281)))
(assert (= "o" (str.at var49 22)))
(assert (= "+" (str.at var18 353)))
(assert (= "k" (str.at var59 57)))
(assert (= "T" (str.at var19 209)))
(assert (= "C" (str.at var31 111)))
(assert (= "p" (str.at var19 193)))
(assert (= "N" (str.at var57 884)))
(assert (= "Y" (str.at var6 521)))
(assert (= "5" (str.at var8 259)))
(assert (= "7" (str.at var11 263)))
(assert (= ">" (str.at var48 613)))
(assert (= "?" (str.at var40 915)))
(assert (= "<" (str.at var13 313)))
(assert (= "[" (str.at var11 16)))
(assert (= "h" (str.at var16 801)))
(assert (= "'" (str.at var34 245)))
(assert (= "0" (str.at var14 423)))
(assert (= "#" (str.at var45 88)))
(assert (= "i" (str.at var31 982)))
(assert (= "c" (str.at var13 482)))
(assert (= "=" (str.at var31 1)))
(assert (= "|" (str.at var47 974)))
(assert (= "." (str.at var8 364)))
(assert (= "O" (str.at var26 957)))
(assert (= "q" (str.at var0 199)))
(assert (= "Y" (str.at var52 436)))
(assert (= "G" (str.at var52 695)))
(assert (= "+" (str.at var20 507)))
(assert (= "6" (str.at var15 353)))
(assert (= "c" (str.at var6 902)))
(assert (= "X" (str.at var54 670)))
(assert (= "u" (str.at var42 79)))
(assert (= "?" (str.at var24 415)))
(assert (= "x" (str.at var37 976)))
(assert (= "$" (str.at var33 814)))
(assert (= "K" (str.at var32 242)))
(assert (= "&" (str.at var59 465)))
(assert (= "J" (str.at var11 550)))
(assert (= "_" (str.at var42 885)))
(assert (= "/" (str.at var18 243)))
(assert (= "8" (str.at var56 754)))
(assert (= "~" (str.at var19 924)))
(assert (= ":" (str.at var28 96)))
(assert (= "6" (str.at var39 544)))
(assert (= "b" (str.at var32 876)))
(assert (= "8" (str.at var33 523)))
(assert (= "W" (str.at var30 846)))
(assert (= "r" (str.at var11 121)))
(assert (= "/" (str.at var29 966)))
(assert (= "z" (str.at var55 980)))
(assert (= "#" (str.at var15 856)))
(assert (= "d" (str.at var6 434)))
(assert (= "G" (str.at var9 293)))
(assert (= "^" (str.at var5 680)))
(assert (= "." (str.at var4 378)))
(assert (= "g" (str.at var7 228)))
(assert (= "{" (str.at var4 920)))
(assert (= "f" (str.at var22 514)))
(assert (= "Y" (str.at var21 414)))
(assert (= "v" (str.at var20 461)))
(assert (= "-" (str.at var4 959)))
(assert (= "[" (str.at var8 760)))
(assert (= "c" (str.at var33 545)))
(assert (= "`" (str.at var51 769)))
(assert (= "y" (str.at var59 368)))
(assert (= "d" (str.at var2 243)))
(assert (= "~" (str.at var39 39)))
(assert (= "1" (str.at var60 280)))
(assert (= "^" (str.at var40 265)))
(assert (= "M" (str.at var36 67)))
(assert (= "C" (str.at var0 570)))
(assert (= "Y" (str.at var58 286)))
(assert (= "N" (str.at var50 461)))
(assert (= "+" (str.at var2 748)))
(assert (= "-" (str.at var16 766)))
(assert (= "U" (str.at var31 290)))
(assert (= "6" (str.at var10 861)))
(assert (= "C" (str.at var20 688)))
(assert (= "/" (str.at var41 386)))
(assert (= "(" (str.at var22 562)))
(assert (= "6" (str.at var1 334)))
(assert (= "." (str.at var12 751)))
(assert (= "A" (str.at var45 512)))
(assert (= "P" (str.at var50 85)))
(assert (= "z" (str.at var30 267)))
(assert (= "k" (str.at var1 637)))
(assert (= "z" (str.at var49 546)))
(assert (= "/" (str.at var46 798)))
(assert (= "7" (str.at var6 963)))
(assert (= "~" (str.at var33 290)))
(assert (= "J" (str.at var58 876)))
(assert (= "G" (str.at var22 86)))
(assert (= "l" (str.at var34 285)))
(assert (= "j" (str.at var5 488)))
(assert (= "<" (str.at var54 854)))
(assert (= "D" (str.at var42 766)))
(assert (= """" (str.at var26 915)))
(assert (= "q" (str.at var25 728)))
(assert (= "*" (str.at var13 772)))
(assert (= "[" (str.at var29 674)))
(assert (= "$" (str.at var13 4)))
(assert (= """" (str.at var52 854)))
(assert (= "W" (str.at var6 922)))
(assert (= "'" (str.at var52 364)))
(assert (= "O" (str.at var30 430)))
(assert (= ">" (str.at var34 968)))
(assert (= "i" (str.at var39 40)))
(assert (= "H" (str.at var53 903)))
(assert (= "Z" (str.at var1 432)))
(assert (= "S" (str.at var53 581)))
(assert (= "V" (str.at var22 727)))
(assert (= "7" (str.at var18 106)))
(assert (= "^" (str.at var59 867)))
(assert (= "k" (str.at var27 397)))
(assert (= "`" (str.at var47 276)))
(assert (= "t" (str.at var9 326)))
(assert (= "a" (str.at var20 945)))
(assert (= "4" (str.at var4 674)))
(assert (= "&" (str.at var54 356)))
(assert (= "f" (str.at var29 611)))
(assert (= "X" (str.at var42 584)))
(assert (= "K" (str.at var18 287)))
(assert (= "7" (str.at var30 288)))
(assert (= "?" (str.at var22 882)))
(assert (= "t" (str.at var49 826)))
(assert (= "0" (str.at var8 995)))
(assert (= "\\" (str.at var5 628)))
(assert (= "6" (str.at var9 793)))
(assert (= "8" (str.at var43 683)))
(assert (= "N" (str.at var28 446)))
(assert (= "W" (str.at var5 891)))
(assert (= "O" (str.at var11 436)))
(assert (= "s" (str.at var47 374)))
(assert (= "#" (str.at var25 651)))
(assert (= "]" (str.at var41 670)))
(assert (= "<" (str.at var35 734)))
(assert (= "+" (str.at var13 953)))
(assert (= "t" (str.at var18 463)))
(assert (= "-" (str.at var23 805)))
(assert (= "B" (str.at var35 283)))
(assert (= "|" (str.at var16 354)))
(assert (= "G" (str.at var51 112)))
(assert (= "2" (str.at var14 654)))
(assert (= "D" (str.at var49 685)))
(assert (= "T" (str.at var45 247)))
(assert (= ">" (str.at var7 716)))
(assert (= "X" (str.at var5 139)))
(assert (= "[" (str.at var59 81)))
(assert (= "Z" (str.at var30 367)))
(assert (= "C" (str.at var41 230)))
(assert (= "W" (str.at var9 833)))
(assert (= "_" (str.at var25 689)))
(assert (= "I" (str.at var31 57)))
(assert (= "9" (str.at var32 644)))
(assert (= "E" (str.at var41 83)))
(assert (= "&" (str.at var42 880)))
(assert (= "k" (str.at var2 731)))
(assert (= "C" (str.at var12 27)))
(assert (= "V" (str.at var37 31)))
(assert (= "K" (str.at var26 320)))
(assert (= "K" (str.at var10 130)))
(assert (= "6" (str.at var4 854)))
(assert (= "O" (str.at var56 904)))
(assert (= "&" (str.at var14 65)))
(assert (= "f" (str.at var26 226)))
(assert (= "O" (str.at var44 880)))
(assert (= ">" (str.at var10 413)))
(assert (= "3" (str.at var34 840)))
(assert (= "O" (str.at var36 167)))
(assert (= "?" (str.at var23 488)))
(assert (= "Y" (str.at var0 248)))
(assert (= "M" (str.at var22 66)))
(assert (= "<" (str.at var27 170)))
(assert (= "K" (str.at var13 389)))
(assert (= "%" (str.at var22 782)))
(assert (= "O" (str.at var14 246)))
(assert (= "M" (str.at var31 244)))
(assert (= "z" (str.at var43 121)))
(assert (= "T" (str.at var18 85)))
(assert (= "m" (str.at var49 452)))
(assert (= "V" (str.at var20 419)))
(assert (= "x" (str.at var24 52)))
(assert (= "+" (str.at var5 973)))
(assert (= "S" (str.at var16 78)))
(assert (= "b" (str.at var10 180)))
(assert (= "6" (str.at var32 278)))
(assert (= "(" (str.at var4 464)))
(assert (= "a" (str.at var18 55)))
(assert (= "A" (str.at var4 118)))
(assert (= ":" (str.at var43 877)))
(assert (= "|" (str.at var60 551)))
(assert (= "Z" (str.at var36 102)))
(assert (= "`" (str.at var34 229)))
(assert (= "o" (str.at var51 288)))
(assert (= "M" (str.at var22 68)))
(assert (= "<" (str.at var27 627)))
(assert (= "^" (str.at var59 736)))
(assert (= "(" (str.at var38 622)))
(assert (= "c" (str.at var54 513)))
(assert (= "!" (str.at var44 946)))
(assert (= ">" (str.at var22 865)))
(assert (= "$" (str.at var43 946)))
(assert (= "P" (str.at var31 850)))
(assert (= "A" (str.at var51 350)))
(assert (= ")" (str.at var49 538)))
(assert (= "J" (str.at var43 161)))
(assert (= "w" (str.at var33 742)))
(assert (= "A" (str.at var22 660)))
(assert (= "y" (str.at var44 261)))
(assert (= "_" (str.at var16 133)))
(assert (= "u" (str.at var45 267)))
(assert (= "r" (str.at var52 571)))
(assert (= "l" (str.at var8 827)))
(assert (= "4" (str.at var49 99)))
(assert (= "J" (str.at var20 381)))
(assert (= "=" (str.at var2 817)))
(assert (= "2" (str.at var23 894)))
(assert (= "T" (str.at var47 201)))
(assert (= "Y" (str.at var21 482)))
(assert (= "]" (str.at var46 446)))
(assert (= "g" (str.at var55 797)))
(assert (= "*" (str.at var10 997)))
(assert (= "7" (str.at var18 538)))
(assert (= "j" (str.at var4 120)))
(assert (= "B" (str.at var25 166)))
(assert (= "y" (str.at var12 32)))
(assert (= "#" (str.at var2 426)))
(assert (= "n" (str.at var34 203)))
(assert (= "B" (str.at var19 978)))
(assert (= "X" (str.at var55 132)))
(assert (= "S" (str.at var39 505)))
(assert (= "i" (str.at var44 730)))
(assert (= "G" (str.at var24 87)))
(assert (= "p" (str.at var42 356)))
(assert (= "D" (str.at var16 640)))
(assert (= ">" (str.at var43 264)))
(assert (= "f" (str.at var47 323)))
(assert (= "8" (str.at var29 900)))
(assert (= "*" (str.at var60 842)))
(assert (= "^" (str.at var45 920)))
(assert (= "w" (str.at var25 18)))
(assert (= "@" (str.at var28 869)))
(assert (= "M" (str.at var9 763)))
(assert (= "}" (str.at var19 38)))
(assert (= "`" (str.at var25 707)))
(assert (= "h" (str.at var6 760)))
(assert (= "t" (str.at var60 461)))
(assert (= "7" (str.at var30 652)))
(assert (= "j" (str.at var12 600)))
(assert (= "7" (str.at var20 674)))
(assert (= "P" (str.at var8 533)))
(assert (= "9" (str.at var24 647)))
(assert (= "x" (str.at var43 105)))
(assert (= ">" (str.at var38 240)))
(assert (= "*" (str.at var45 521)))
(assert (= "." (str.at var4 860)))
(assert (= "p" (str.at var4 630)))
(assert (= ";" (str.at var43 567)))
(assert (= "2" (str.at var17 258)))
(assert (= "C" (str.at var27 180)))
(assert (= ";" (str.at var8 273)))
(assert (= "9" (str.at var33 480)))
(assert (= "k" (str.at var25 212)))
(assert (= "r" (str.at var0 658)))
(assert (= "K" (str.at var44 448)))
(assert (= "(" (str.at var6 17)))
(assert (= "%" (str.at var29 78)))
(assert (= "-" (str.at var14 325)))
(assert (= "}" (str.at var50 762)))
(assert (= "G" (str.at var20 334)))
(assert (= "?" (str.at var13 565)))
(assert (= "w" (str.at var20 63)))
(assert (= "$" (str.at var8 184)))
(assert (= "Q" (str.at var43 402)))
(assert (= "b" (str.at var13 327)))
(assert (= "}" (str.at var36 166)))
(assert (= "k" (str.at var56 915)))
(assert (= "J" (str.at var38 653)))
(assert (= "4" (str.at var55 716)))
(assert (= "v" (str.at var5 81)))
(assert (= "?" (str.at var6 903)))
(assert (= ")" (str.at var23 140)))
(assert (= "5" (str.at var24 565)))
(assert (= "u" (str.at var49 364)))
(assert (= "x" (str.at var1 679)))
(assert (= "G" (str.at var35 920)))
(assert (= "." (str.at var35 344)))
(assert (= "p" (str.at var37 995)))
(assert (= "R" (str.at var36 842)))
(assert (= "]" (str.at var29 778)))
(assert (= "N" (str.at var57 798)))
(assert (= "M" (str.at var48 66)))
(assert (= "$" (str.at var51 577)))
(assert (= "N" (str.at var28 595)))
(assert (= "*" (str.at var42 59)))
(assert (= "l" (str.at var51 944)))
(assert (= "h" (str.at var11 406)))
(assert (= "p" (str.at var10 172)))
(assert (= "i" (str.at var24 10)))
(assert (= "&" (str.at var36 930)))
(assert (= "b" (str.at var13 949)))
(assert (= "s" (str.at var44 249)))
(assert (= "W" (str.at var40 651)))
(assert (= "g" (str.at var51 829)))
(assert (= "b" (str.at var38 575)))
(assert (= "}" (str.at var9 800)))
(assert (= "n" (str.at var19 694)))
(assert (= "J" (str.at var2 911)))
(assert (= "!" (str.at var45 261)))
(assert (= "&" (str.at var42 849)))
(assert (= "q" (str.at var15 89)))
(assert (= "d" (str.at var7 216)))
(assert (= "-" (str.at var14 351)))
(assert (= "J" (str.at var19 259)))
(assert (= "P" (str.at var27 31)))
(assert (= "S" (str.at var55 818)))
(assert (= "/" (str.at var44 646)))
(assert (= "s" (str.at var7 777)))
(assert (= "i" (str.at var16 528)))
(assert (= "c" (str.at var27 676)))
(assert (= "a" (str.at var43 766)))
(assert (= "*" (str.at var5 305)))
(assert (= "B" (str.at var23 583)))
(assert (= "@" (str.at var46 948)))
(assert (= "d" (str.at var41 721)))
(assert (= "#" (str.at var39 856)))
(assert (= "r" (str.at var17 670)))
(assert (= "s" (str.at var16 937)))
(assert (= ">" (str.at var47 465)))
(assert (= "{" (str.at var15 110)))
(assert (= "9" (str.at var21 383)))
(assert (= "," (str.at var32 885)))
(assert (= "l" (str.at var2 429)))
(assert (= "A" (str.at var55 326)))
(assert (= "~" (str.at var47 196)))
(assert (= "2" (str.at var3 639)))
(assert (= "p" (str.at var20 983)))
(assert (= "W" (str.at var7 231)))
(assert (= "|" (str.at var24 758)))
(assert (= "<" (str.at var19 490)))
(assert (= "3" (str.at var24 638)))
(assert (= "u" (str.at var42 640)))
(assert (= "," (str.at var18 314)))
(assert (= "F" (str.at var15 898)))
(assert (= ")" (str.at var59 114)))
(assert (= "z" (str.at var24 490)))
(assert (= "3" (str.at var58 194)))
(assert (= "S" (str.at var3 694)))
(assert (= "j" (str.at var34 716)))
(assert (= "T" (str.at var44 35)))
(assert (= "d" (str.at var8 918)))
(assert (= "d" (str.at var20 611)))
(assert (= ":" (str.at var23 331)))
(assert (= "z" (str.at var39 831)))
(assert (= "L" (str.at var13 279)))
(assert (= "1" (str.at var11 919)))
(assert (= ")" (str.at var53 336)))
(assert (= "B" (str.at var19 482)))
(assert (= "F" (str.at var13 416)))
(assert (= "\\" (str.at var15 672)))
(assert (= "!" (str.at var8 45)))
(assert (= "k" (str.at var33 172)))
(assert (= "H" (str.at var0 630)))
(assert (= "M" (str.at var24 663)))
(assert (= "T" (str.at var21 114)))
(assert (= "g" (str.at var31 94)))
(assert (= "6" (str.at var36 127)))
(assert (= "f" (str.at var41 327)))
(assert (= "X" (str.at var15 748)))
(assert (= "<" (str.at var54 154)))
(assert (= "d" (str.at var1 927)))
(assert (= "o" (str.at var22 984)))
(assert (= "O" (str.at var9 784)))
(assert (= "V" (str.at var40 343)))
(assert (= "9" (str.at var11 408)))
(assert (= "(" (str.at var40 717)))
(assert (= "9" (str.at var13 519)))
(assert (= "i" (str.at var0 909)))
(assert (= "|" (str.at var3 565)))
(assert (= "!" (str.at var3 497)))
(assert (= "*" (str.at var30 271)))
(assert (= "{" (str.at var40 550)))
(assert (= "M" (str.at var23 302)))
(assert (= "G" (str.at var59 345)))
(assert (= "l" (str.at var16 141)))
(assert (= "(" (str.at var60 595)))
(assert (= "C" (str.at var42 182)))
(assert (= "r" (str.at var28 265)))
(assert (= "r" (str.at var52 42)))
(assert (= "." (str.at var4 609)))
(assert (= "P" (str.at var37 624)))
(assert (= "m" (str.at var9 437)))
(assert (= "I" (str.at var19 278)))
(assert (= "`" (str.at var21 727)))
(assert (= "w" (str.at var32 384)))
(assert (= "[" (str.at var35 443)))
(assert (= "P" (str.at var9 227)))
(assert (= "*" (str.at var41 966)))
(assert (= "O" (str.at var58 187)))
(assert (= "+" (str.at var9 702)))
(assert (= "b" (str.at var35 163)))
(assert (= "}" (str.at var31 643)))
(assert (= "q" (str.at var10 781)))
(assert (= "2" (str.at var31 633)))
(assert (= "e" (str.at var11 786)))
(assert (= "$" (str.at var38 918)))
(assert (= "(" (str.at var14 768)))
(assert (= "I" (str.at var10 689)))
(assert (= "L" (str.at var8 848)))
(assert (= "W" (str.at var1 204)))
(assert (= ":" (str.at var19 917)))
(assert (= "Z" (str.at var11 393)))
(assert (= "{" (str.at var24 547)))
(assert (= "[" (str.at var54 165)))
(assert (= "?" (str.at var49 264)))
(assert (= "H" (str.at var1 862)))
(assert (= "B" (str.at var27 755)))
(assert (= "m" (str.at var55 278)))
(assert (= "?" (str.at var53 740)))
(assert (= "0" (str.at var58 487)))
(assert (= "h" (str.at var16 687)))
(assert (= "D" (str.at var23 96)))
(assert (= "6" (str.at var29 985)))
(assert (= "e" (str.at var33 658)))
(assert (= "b" (str.at var18 828)))
(assert (= """" (str.at var8 644)))
(assert (= ":" (str.at var29 459)))
(assert (= "U" (str.at var12 92)))
(assert (= ">" (str.at var45 230)))
(assert (= "'" (str.at var36 797)))
(assert (= "b" (str.at var9 771)))
(assert (= "r" (str.at var13 817)))
(assert (= "1" (str.at var5 433)))
(assert (= "V" (str.at var2 145)))
(assert (= "r" (str.at var31 461)))
(assert (= "$" (str.at var35 714)))
(assert (= "q" (str.at var13 83)))
(assert (= "," (str.at var1 8)))
(assert (= "X" (str.at var48 315)))
(assert (= "{" (str.at var40 368)))
(assert (= "{" (str.at var2 996)))
(assert (= "-" (str.at var60 779)))
(assert (= "&" (str.at var44 924)))
(assert (= "/" (str.at var11 606)))
(assert (= "U" (str.at var16 979)))
(assert (= "`" (str.at var59 944)))
(assert (= "|" (str.at var51 968)))
(assert (= "," (str.at var52 59)))
(assert (= "I" (str.at var3 327)))
(assert (= "r" (str.at var4 304)))
(assert (= "4" (str.at var60 8)))
(assert (= "R" (str.at var30 700)))
(assert (= """" (str.at var55 745)))
(assert (= "6" (str.at var41 848)))
(assert (= "a" (str.at var47 458)))
(assert (= "(" (str.at var32 938)))
(assert (= "T" (str.at var19 983)))
(assert (= "x" (str.at var10 204)))
(assert (= "D" (str.at var33 671)))
(assert (= "=" (str.at var38 568)))
(assert (= "K" (str.at var16 208)))
(assert (= "R" (str.at var15 523)))
(assert (= "k" (str.at var51 222)))
(assert (= "F" (str.at var47 685)))
(assert (= "!" (str.at var47 658)))
(assert (= "k" (str.at var14 673)))
(assert (= "R" (str.at var49 790)))
(assert (= "-" (str.at var36 537)))
(assert (= "]" (str.at var21 914)))
(assert (= "." (str.at var9 262)))
(assert (= "y" (str.at var28 155)))
(assert (= "^" (str.at var17 915)))
(assert (= "4" (str.at var3 201)))
(assert (= "?" (str.at var56 617)))
(assert (= "S" (str.at var11 347)))
(assert (= "]" (str.at var2 851)))
(assert (= "'" (str.at var37 967)))
(assert (= "H" (str.at var38 508)))
(assert (= "1" (str.at var57 906)))
(assert (= "p" (str.at var18 963)))
(assert (= "h" (str.at var15 723)))
(assert (= "e" (str.at var27 21)))
(assert (= "#" (str.at var29 471)))
(assert (= "p" (str.at var22 890)))
(assert (= "a" (str.at var29 301)))
(assert (= "D" (str.at var54 373)))
(assert (= "d" (str.at var28 979)))
(assert (= "1" (str.at var46 688)))
(assert (= "1" (str.at var5 816)))
(assert (= "y" (str.at var23 757)))
(assert (= "K" (str.at var23 795)))
(assert (= "1" (str.at var50 214)))
(assert (= "'" (str.at var47 526)))
(assert (= "#" (str.at var0 700)))
(assert (= "9" (str.at var20 45)))
(assert (= "C" (str.at var42 834)))
(assert (= "J" (str.at var26 892)))
(assert (= "," (str.at var31 694)))
(assert (= "a" (str.at var14 610)))
(assert (= "Y" (str.at var17 809)))
(assert (= "/" (str.at var33 996)))
(assert (= "n" (str.at var49 764)))
(assert (= "l" (str.at var3 39)))
(assert (= "P" (str.at var3 465)))
(assert (= "I" (str.at var16 593)))
(assert (= "2" (str.at var47 182)))
(assert (= "B" (str.at var8 27)))
(assert (= "]" (str.at var1 548)))
(assert (= "q" (str.at var27 926)))
(assert (= "v" (str.at var46 949)))
(assert (= "i" (str.at var39 442)))
(assert (= "V" (str.at var22 141)))
(assert (= "|" (str.at var27 159)))
(assert (= "z" (str.at var29 881)))
(assert (= "3" (str.at var4 382)))
(assert (= "%" (str.at var29 415)))
(assert (= "5" (str.at var2 870)))
(assert (= "/" (str.at var51 289)))
(assert (= """" (str.at var14 527)))
(assert (= ">" (str.at var7 868)))
(assert (= "q" (str.at var51 569)))
(assert (= ";" (str.at var23 443)))
(assert (= "5" (str.at var51 34)))
(assert (= "U" (str.at var24 454)))
(assert (= "H" (str.at var3 846)))
(assert (= "H" (str.at var39 752)))
(assert (= "~" (str.at var9 353)))
(assert (= "e" (str.at var0 665)))
(assert (= "l" (str.at var32 268)))
(assert (= "n" (str.at var45 208)))
(assert (= "S" (str.at var29 341)))
(assert (= "R" (str.at var60 48)))
(assert (= "?" (str.at var8 121)))
(assert (= "s" (str.at var57 720)))
(assert (= "F" (str.at var10 939)))
(assert (= "I" (str.at var22 501)))
(assert (= "&" (str.at var30 365)))
(assert (= "W" (str.at var15 977)))
(assert (= "&" (str.at var60 506)))
(assert (= "a" (str.at var44 291)))
(assert (= """" (str.at var9 311)))
(assert (= "Y" (str.at var19 927)))
(assert (= "0" (str.at var58 247)))
(assert (= "N" (str.at var50 975)))
(assert (= "1" (str.at var46 391)))
(assert (= "9" (str.at var59 652)))
(assert (= "d" (str.at var21 240)))
(assert (= "g" (str.at var43 711)))
(assert (= "h" (str.at var2 925)))
(assert (= "^" (str.at var17 202)))
(assert (= "A" (str.at var58 983)))
(assert (= "i" (str.at var13 374)))
(assert (= "o" (str.at var8 755)))
(assert (= "\\" (str.at var11 154)))
(assert (= "k" (str.at var0 166)))
(assert (= "Y" (str.at var25 612)))
(assert (= ":" (str.at var23 64)))
(assert (= "q" (str.at var28 892)))
(assert (= "L" (str.at var31 855)))
(assert (= "^" (str.at var37 951)))
(assert (= "@" (str.at var56 397)))
(assert (= ";" (str.at var43 691)))
(assert (= "@" (str.at var32 390)))
(assert (= "y" (str.at var33 61)))
(assert (= "'" (str.at var34 862)))
(assert (= "{" (str.at var22 119)))
(assert (= "+" (str.at var39 973)))
(assert (= "z" (str.at var33 150)))
(assert (= "~" (str.at var2 379)))
(assert (= "9" (str.at var33 987)))
(assert (= "L" (str.at var0 782)))
(assert (= "9" (str.at var27 657)))
(assert (= "H" (str.at var16 341)))
(assert (= "%" (str.at var42 635)))
(assert (= "6" (str.at var24 68)))
(assert (= "B" (str.at var20 485)))
(assert (= "m" (str.at var40 132)))
(assert (= "+" (str.at var15 211)))
(assert (= "/" (str.at var19 762)))
(assert (= "4" (str.at var10 526)))
(assert (= "|" (str.at var58 974)))
(assert (= "h" (str.at var52 475)))
(assert (= "e" (str.at var47 54)))
(assert (= "%" (str.at var2 971)))
(assert (= "L" (str.at var21 871)))
(assert (= "|" (str.at var38 762)))
(assert (= "}" (str.at var24 72)))
(assert (= "j" (str.at var18 733)))
(assert (= "}" (str.at var25 625)))
(assert (= "%" (str.at var29 747)))
(assert (= "s" (str.at var10 116)))
(assert (= "," (str.at var5 217)))
(assert (= "_" (str.at var60 398)))
(assert (= "/" (str.at var28 339)))
(assert (= "7" (str.at var40 622)))
(assert (= "l" (str.at var60 183)))
(assert (= "G" (str.at var40 567)))
(assert (= "q" (str.at var16 773)))
(assert (= "^" (str.at var16 735)))
(assert (= "]" (str.at var26 724)))
(assert (= "`" (str.at var35 72)))
(assert (= "-" (str.at var37 276)))
(assert (= "-" (str.at var20 629)))
(assert (= "Z" (str.at var26 344)))
(assert (= "Y" (str.at var13 445)))
(assert (= "D" (str.at var27 866)))
(assert (= "W" (str.at var41 453)))
(assert (= "|" (str.at var6 780)))
(assert (= "v" (str.at var1 662)))
(assert (= "$" (str.at var39 823)))
(assert (= "-" (str.at var52 386)))
(assert (= "F" (str.at var12 375)))
(assert (= "}" (str.at var37 274)))
(assert (= "C" (str.at var53 707)))
(assert (= "M" (str.at var18 537)))
(assert (= "." (str.at var8 16)))
(assert (= "d" (str.at var59 500)))
(assert (= "a" (str.at var11 15)))
(assert (= "M" (str.at var60 337)))
(assert (= "8" (str.at var58 278)))
(assert (= "q" (str.at var43 798)))
(assert (= "_" (str.at var3 548)))
(assert (= "T" (str.at var10 608)))
(assert (= "6" (str.at var57 737)))
(assert (= "3" (str.at var59 881)))
(assert (= "s" (str.at var35 389)))
(assert (= "K" (str.at var12 990)))
(assert (= "g" (str.at var12 541)))
(assert (= "g" (str.at var26 502)))
(assert (= "X" (str.at var5 541)))
(assert (= "\\" (str.at var20 254)))
(assert (= "[" (str.at var50 303)))
(assert (= "D" (str.at var7 173)))
(assert (= ";" (str.at var54 357)))
(assert (= "G" (str.at var23 739)))
(assert (= "Q" (str.at var60 223)))
(assert (= "e" (str.at var32 707)))
(assert (= "^" (str.at var4 369)))
(assert (= "m" (str.at var3 937)))
(assert (= "~" (str.at var51 78)))
(assert (= "D" (str.at var26 385)))
(assert (= "|" (str.at var53 462)))
(assert (= "0" (str.at var49 27)))
(assert (= ">" (str.at var59 156)))
(assert (= "Q" (str.at var52 633)))
(assert (= "O" (str.at var33 984)))
(assert (= "e" (str.at var56 760)))
(assert (= "n" (str.at var48 640)))
(assert (= "!" (str.at var5 855)))
(assert (= "L" (str.at var16 389)))
(assert (= "~" (str.at var50 58)))
(assert (= "8" (str.at var31 387)))
(assert (= "m" (str.at var18 879)))
(assert (= "r" (str.at var28 442)))
(assert (= "l" (str.at var40 787)))
(assert (= "A" (str.at var39 639)))
(assert (= "J" (str.at var4 98)))
(assert (= "9" (str.at var50 591)))
(assert (= "^" (str.at var25 129)))
(assert (= "^" (str.at var59 50)))
(assert (= "R" (str.at var4 737)))
(assert (= "v" (str.at var2 267)))
(assert (= "!" (str.at var7 555)))
(assert (= "\\" (str.at var54 410)))
(assert (= "k" (str.at var16 397)))
(assert (= "R" (str.at var10 788)))
(assert (= "S" (str.at var59 900)))
(assert (= "P" (str.at var49 196)))
(assert (= "9" (str.at var56 539)))
(assert (= "[" (str.at var9 67)))
(assert (= "O" (str.at var42 341)))
(assert (= "3" (str.at var12 196)))
(assert (= "k" (str.at var57 685)))
(assert (= "[" (str.at var47 860)))
(assert (= "D" (str.at var6 296)))
(assert (= "{" (str.at var40 205)))
(assert (= "." (str.at var10 611)))
(assert (= """" (str.at var46 562)))
(assert (= "Y" (str.at var36 724)))
(assert (= "<" (str.at var7 330)))
(assert (= "o" (str.at var1 55)))
(assert (= "w" (str.at var36 161)))
(assert (= "[" (str.at var0 253)))
(assert (= "4" (str.at var47 970)))
(assert (= "s" (str.at var23 412)))
(assert (= "#" (str.at var19 203)))
(assert (= "3" (str.at var50 714)))
(assert (= "a" (str.at var41 189)))
(assert (= ">" (str.at var43 469)))
(assert (= "S" (str.at var19 658)))
(check-sat)
(get-model)